Solver command line: ['C:\\Program Files\\IBM\\ILOG\\CPLEX_Studio128\\cplex\\bin\\x64_win64\\cplex.exe']


Welcome to IBM(R) ILOG(R) CPLEX(R) Interactive Optimizer 12.8.0.0
  with Simplex, Mixed Integer & Barrier Optimizers
5725-A06 5725-A29 5724-Y48 5724-Y49 5724-Y54 5724-Y55 5655-Y21
Copyright IBM Corp. 1988, 2017.  All Rights Reserved.

Type 'help' for a list of available commands.
Type 'help' followed by a command name for more
information on commands.

CPLEX> Logfile 'cplex.log' closed.
Logfile 'log\Resolution_17-07-22_18-40-56.log' open.
CPLEX> Problem 'C:\Users\Alberto\AppData\Local\Temp\tmpilhcsqq_.pyomo.lp' read.
Read time = 0.02 sec. (0.74 ticks)
CPLEX> Problem name         : C:\Users\Alberto\AppData\Local\Temp\tmpilhcsqq_.pyomo.lp
Objective sense      : Maximize
Variables            :    1635  [Nneg: 1,  Binary: 1632,  General Integer: 2]
Objective nonzeros   :    1186
Linear constraints   :    4425  [Less: 3880,  Greater: 32,  Equal: 513]
  Nonzeros           :   39101
  RHS nonzeros       :    3879

Variables            : Min LB: 0.000000         Max UB: 1.000000       
Objective nonzeros   : Min   : 1.000000         Max   : 4.000000       
Linear constraints   :
  Nonzeros           : Min   : 1.000000         Max   : 51.00000       
  RHS nonzeros       : Min   : 1.000000         Max   : 51.00000       
CPLEX> Tried aggregator 2 times.
MIP Presolve eliminated 3687 rows and 486 columns.
MIP Presolve modified 17195 coefficients.
Aggregator did 2 substitutions.
Reduced MIP has 736 rows, 1147 columns, and 5839 nonzeros.
Reduced MIP has 1145 binaries, 2 generals, 0 SOSs, and 0 indicators.
Presolve time = 0.01 sec. (24.15 ticks)
Found incumbent of value 12.000000 after 0.01 sec. (29.65 ticks)
Probing time = 0.00 sec. (2.42 ticks)
Tried aggregator 1 time.
MIP Presolve modified 2 coefficients.
Reduced MIP has 736 rows, 1147 columns, and 5839 nonzeros.
Reduced MIP has 1145 binaries, 2 generals, 0 SOSs, and 0 indicators.
Presolve time = 0.02 sec. (3.98 ticks)
Probing time = 0.00 sec. (2.42 ticks)
Cover probing fixed 0 vars, tightened 3 bounds.
Clique table members: 1715.
Tightened 3 constraints.
MIP emphasis: balance optimality and feasibility.
MIP search method: dynamic search.
Parallel mode: deterministic, using up to 4 threads.
Root relaxation solution time = 0.00 sec. (2.54 ticks)

        Nodes                                         Cuts/
   Node  Left     Objective  IInf  Best Integer    Best Bound    ItCnt     Gap

*     0+    0                           12.0000     1149.0000              --- 
*     0+    0                           56.0000     1149.0000              --- 
      0     0       68.0000     6       56.0000       68.0000      107   21.43%
*     0+    0                           68.0000       68.0000             0.00%
      0     0        cutoff             68.0000       68.0000      107    0.00%
Elapsed time = 0.05 sec. (46.55 ticks, tree = 0.01 MB, solutions = 3)

Root node processing (before b&c):
  Real time             =    0.05 sec. (46.66 ticks)
Parallel b&c, 4 threads:
  Real time             =    0.00 sec. (0.00 ticks)
  Sync time (average)   =    0.00 sec.
  Wait time (average)   =    0.00 sec.
                          ------------
Total (root+branch&cut) =    0.05 sec. (46.66 ticks)

Solution pool: 3 solutions saved.

MIP - Integer optimal solution:  Objective =  6.8000000000e+01
Solution time =    0.05 sec.  Iterations = 107  Nodes = 0
Deterministic time = 46.66 ticks  (1014.35 ticks/sec)

CPLEX> Incumbent solution written to file 'C:\Users\Alberto\AppData\Local\Temp\tmp9t0eca4q.cplex.sol'.
CPLEX> 
